Route #1: 75 93
Route #2: 71 62 99 98 89
Route #3: 24 95 73 53 33 32
Route #4: 20 41 22 15
Route #5: 19 97 27
Route #6: 50 91 52
Route #7: 59 60 82
Route #8: 57 72 36 29 43 45 2 7
Route #9: 44 67 88 40
Route #10: 39 10 18
Route #11: 63 77 3
Route #12: 25 65 78 42 28
Route #13: 83 51 81
Route #14: 79 11 85 30
Route #15: 4 13 74
Route #16: 69 16 55 76
Route #17: 58 12 5
Route #18: 92 9 86
Route #19: 17 8
Route #20: 31 46 35
Route #21: 68 90 84 66
Route #22: 14 49 6 37 87
Route #23: 100 61 23
Route #24: 21 56 94 80
Route #25: 34 64 96 48 26 47 38
Route #26: 1 70 54
Cost 27591.0000
Time 16.0001